Route 1: 0 68 100 35 48 1 26 19 5 91 10 0
Route 2: 0 93 25 70 37 44 54 89 0
Route 3: 0 30 20 71 62 74 77 24 18 45 92 4 0
Route 4: 0 52 87 50 78 84 55 2 41 46 66 57 61 0
Route 5: 0 11 86 7 23 97 65 14 8 76 73 64 0
Route 6: 0 95 99 49 3 88 9 12 40 58 0
Route 7: 0 79 53 51 94 81 32 0
Route 8: 0 17 98 69 29 59 67 39 43 42 80 0
Route 9: 0 38 22 83 28 60 16 82 27 31 0
Route 10: 0 21 15 6 72 33 36 63 47 56 96 13 85 0
Route 11: 0 34 90 75 0
